p cnf 82 272
5 -3 0
5 -4 0
3 4 -5 0
-6 2 0
-6 5 0
-2 -5 6 0
7 1 0
7 -6 0
-1 6 -7 0
-9 -8 0
-9 -2 0
8 2 9 0
-10 -7 0
-10 -9 0
7 9 10 0
5 -2 -11 0
-5 2 -11 0
5 2 11 0
-5 -2 11 0
-12 2 -13 0
12 -2 -13 0
-12 -2 13 0
12 2 13 0
-11 13 -14 0
11 -13 -14 0
-11 -13 14 0
11 13 14 0
-17 15 0
-17 16 0
-15 -16 17 0
-19 -1 -20 0
19 1 -20 0
-19 1 20 0
19 -1 20 0
21 18 0
21 -20 0
-18 20 -21 0
-22 -17 0
-22 -21 0
17 21 22 0
-23 5 0
-23 -16 0
-5 16 23 0
-24 22 0
-24 23 0
-22 -23 24 0
-25 3 0
-25 -2 0
-3 2 25 0
-19 -25 -26 0
19 25 -26 0
-19 25 26 0
19 -25 26 0
-28 -3 0
-28 -27 0
3 27 28 0
-29 -26 0
-29 -28 0
26 28 29 0
-32 31 0
-32 8 0
-31 -8 32 0
33 32 0
33 -6 0
-32 6 -33 0
-30 33 -34 0
30 -33 -34 0
-30 -33 34 0
30 33 34 0
35 -31 0
35 12 0
31 -12 -35 0
36 35 0
36 30 0
-35 -30 -36 0
37 -36 0
37 -8 0
36 8 -37 0
38 -34 0
38 37 0
34 -37 -38 0
39 29 0
39 38 0
-29 -38 -39 0
-24 -39 -40 0
24 39 -40 0
-24 39 40 0
24 -39 40 0
18 -12 -41 0
-18 12 -41 0
18 12 41 0
-18 -12 41 0
42 -11 0
42 -11 0
11 -42 0
-41 -42 -43 0
41 42 -43 0
-41 42 43 0
41 -42 43 0
-40 -43 -44 0
40 43 -44 0
-40 43 44 0
40 -43 44 0
14 -44 -45 0
-14 44 -45 0
14 44 45 0
-14 -44 45 0
46 -31 0
46 25 0
31 -25 -46 0
46 41 -47 0
-46 -41 -47 0
46 -41 47 0
-46 41 47 0
27 -4 -48 0
-27 4 -48 0
27 4 48 0
-27 -4 48 0
-49 -47 0
-49 48 0
47 -48 49 0
50 49 0
50 23 0
-49 -23 -50 0
51 -4 0
51 35 0
4 -35 -51 0
-52 -51 0
-52 -51 0
51 52 0
53 -20 0
53 48 0
20 -48 -53 0
-54 52 0
-54 -53 0
-52 53 54 0
50 -54 -55 0
-50 54 -55 0
50 54 55 0
-50 -54 55 0
-35 -20 -56 0
35 20 -56 0
-35 20 56 0
35 -20 56 0
57 2 0
57 -56 0
-2 56 -57 0
57 41 -58 0
-57 -41 -58 0
57 -41 58 0
-57 41 58 0
-58 -59 0
58 -59 0
55 -59 -60 0
-55 59 -60 0
55 59 60 0
-55 -59 60 0
61 -1 0
61 27 0
1 -27 -61 0
60 -61 -62 0
-60 61 -62 0
60 61 62 0
-60 -61 62 0
-63 27 0
-63 -17 0
-27 17 63 0
64 -3 0
64 63 0
3 -63 -64 0
65 3 0
65 42 0
-3 -42 -65 0
64 65 -66 0
-64 -65 -66 0
64 -65 66 0
-64 65 66 0
-67 62 0
-67 -66 0
-62 66 67 0
-68 -1 0
-68 -1 0
1 68 0
-69 -68 0
-69 -68 0
68 69 0
70 -30 0
70 -21 0
30 21 -70 0
-27 26 -71 0
27 -26 -71 0
-27 -26 71 0
27 26 71 0
72 -71 0
72 -37 0
71 37 -72 0
-73 -70 0
-73 72 0
70 -72 73 0
75 28 0
75 -74 0
-28 74 -75 0
-76 73 0
-76 -75 0
-73 75 76 0
31 23 -77 0
-31 -23 -77 0
31 -23 77 0
-31 23 77 0
78 76 0
78 -77 0
-76 77 -78 0
-79 69 0
-79 -78 0
-69 78 79 0
67 -79 -80 0
-67 79 -80 0
67 79 80 0
-67 -79 80 0
45 -80 -81 0
-45 80 -81 0
45 80 81 0
-45 -80 81 0
82 10 0
82 -81 0
-10 81 -82 0
-2 -10 74 -41 -52 44 0
-76 0
35 -63 0
-40 -24 14 18 46 -71 0
-6 38 60 -13 0
65 13 66 79 16 0
58 51 56 41 -1 0
54 -77 -44 35 0
52 22 35 -44 59 0
-20 28 11 1 0
32 -30 -12 29 78 4 0
-63 44 0
-33 12 0
-33 -16 28 0
-73 80 0
-74 27 0
-54 -10 -76 0
32 -43 19 0
80 6 -23 -48 44 0
2 20 -40 -53 31 0
35 -38 0
-67 29 11 54 -2 -74 0
-22 -2 -35 3 0
27 -72 82 5 -73 0
16 60 -59 -35 0
1 -3 2 0
26 -5 0
29 69 8 -41 0
-18 -37 0
-9 -80 0
49 -65 19 0
34 -45 6 -16 -59 0
-49 57 -54 29 0
79 20 24 -15 -37 5 0
56 62 77 69 25 54 0
-65 10 1 66 0
71 2 -28 -76 0
-40 36 -75 -72 44 15 0
-51 36 54 62 -78 0
-7 0
-66 -75 34 0
-49 -9 65 -75 -51 0
-7 71 0
-20 55 -77 0
76 17 -16 -81 1 0
82 0
